/*********************************************
    * Lab01 - simple
    * Author: Coso
    * Creation Date: Mar, 2019
    *********************************************/
instance_name = "small_instance_19_simple";

d = 2;
r = 3;

SCj = [143 126];
Dk = [50 48 42];

Cjk = [[54 36 68]
 [44 81 68]];
